
Gurobi 10.0.0 (win64) logging started Tue Jun  4 16:35:37 2024

Set parameter LogFile to value "C:\Users\ealvarezq\Documents\GitHub\Comillas\Models\JointResearch\05. Models\06.Benchmarking\K.Investments_per_hour\9n_mod1_ByStages_nc50/openStarNet_9n_mod1_ByStages_nc50.log"
Set parameter Method to value 2
Set parameter MIPFocus to value 1
Set parameter Presolve to value 2
Set parameter RINS to value 100
Set parameter MIPGap to value 0.01
Set parameter Threads to value 9
Set parameter TimeLimit to value 259200
Set parameter IterationLimit to value 760000000
Gurobi Optimizer version 10.0.0 build v10.0.0rc2 (win64)

CPU model: Intel(R) Core(TM) i7-8700 CPU @ 3.20GHz, instruction set [SSE2|AVX|AVX2]
Thread count: 6 physical cores, 12 logical processors, using up to 9 threads

Optimize a model with 13103 rows, 6988 columns and 39676 nonzeros
Model fingerprint: 0xed59367a
Variable types: 6952 continuous, 36 integer (36 binary)
Coefficient statistics:
  Matrix range     [2e-04, 2e+03]
  Objective range  [1e+00, 1e+00]
  Bounds range     [3e-04, 2e+00]
  RHS range        [2e-04, 1e+00]
Presolve removed 4453 rows and 2353 columns
Presolve time: 0.07s
Presolved: 8650 rows, 4635 columns, 29599 nonzeros
Variable types: 4599 continuous, 36 integer (36 binary)
Found heuristic solution: objective 5193.0396882
Root relaxation presolved: 8650 rows, 4635 columns, 29599 nonzeros

Root barrier log...

Ordering time: 0.00s

Barrier statistics:
 Dense cols : 36
 AA' NZ     : 1.025e+05
 Factor NZ  : 2.029e+05 (roughly 7 MB of memory)
 Factor Ops : 6.756e+06 (less than 1 second per iteration)
 Threads    : 9

                  Objective                Residual
Iter       Primal          Dual         Primal    Dual     Compl     Time
   0   4.80502661e+05 -4.26483866e+07  7.17e+00 4.41e+02  9.72e+03     0s
   1   7.66399600e+04 -1.72570548e+07  9.88e-01 1.96e-09  1.49e+03     0s
   2   1.82959727e+04 -4.10148711e+06  3.55e-02 6.02e-09  2.48e+02     0s
   3   8.53052461e+03 -1.55599744e+05  2.49e-14 1.38e-10  9.62e+00     0s
   4   1.67662542e+03 -1.95273302e+04  1.44e-13 1.42e-11  1.24e+00     0s
   5   8.97729520e+02 -9.30807827e+03  2.05e-13 6.60e-12  5.98e-01     0s
   6   6.88933109e+02 -4.02262332e+03  8.35e-14 2.87e-12  2.76e-01     0s
   7   3.85167858e+02 -5.54540617e+02  4.80e-14 1.51e-12  5.51e-02     0s
   8   2.28216731e+02 -1.41392871e+02  6.13e-14 1.72e-12  2.17e-02     0s
   9   1.20229506e+02  1.25638745e+01  4.48e-13 1.45e-12  6.31e-03     0s
  10   1.05953258e+02  5.66085970e+01  5.61e-13 1.13e-12  2.89e-03     0s
  11   9.28311687e+01  7.04760968e+01  3.68e-13 1.32e-12  1.31e-03     0s
  12   9.01631892e+01  7.44428766e+01  7.59e-13 1.04e-12  9.21e-04     0s
  13   8.74792305e+01  7.61646895e+01  7.00e-13 1.06e-12  6.63e-04     0s
  14   8.52516669e+01  7.97941151e+01  1.79e-12 1.63e-12  3.20e-04     0s
  15   8.44533914e+01  8.11450445e+01  6.81e-12 1.72e-12  1.94e-04     0s
  16   8.36143554e+01  8.27462055e+01  1.56e-12 1.08e-12  5.09e-05     0s
  17   8.34672093e+01  8.33926369e+01  1.44e-09 1.67e-12  4.37e-06     0s
  18   8.34481206e+01  8.34417618e+01  5.50e-10 8.46e-13  3.73e-07     0s
  19   8.34447822e+01  8.34447803e+01  1.17e-09 1.66e-12  1.10e-10     0s
  20   8.34447815e+01  8.34447815e+01  4.35e-12 1.82e-12  2.23e-16     0s

Barrier solved model in 20 iterations and 0.25 seconds (0.22 work units)
Optimal objective 8.34447815e+01


Root relaxation: objective 8.344478e+01, 764 iterations, 0.14 seconds (0.11 work units)

    Nodes    |    Current Node    |     Objective Bounds      |     Work
 Expl Unexpl |  Obj  Depth IntInf | Incumbent    BestBd   Gap | It/Node Time

     0     0   83.44478    0    6 5193.03969   83.44478  98.4%     -    0s
H    0     0                      86.5097250   83.44478  3.54%     -    0s
     0     0   85.59015    0    1   86.50973   85.59015  1.06%     -    0s
     0     0   85.59015    0    3   86.50973   85.59015  1.06%     -    0s

Cutting planes:
  Cover: 1
  MIR: 9

Explored 1 nodes (1116 simplex iterations) in 0.53 seconds (0.37 work units)
Thread count was 9 (of 12 available processors)

Solution count 2: 86.5097 5193.04 

Optimal solution found (tolerance 1.00e-02)
Best objective 8.650972500560e+01, best bound 8.579328658844e+01, gap 0.8282%

Gurobi 10.0.0 (win64) logging started Tue Jun  4 16:35:40 2024

Set parameter LogFile to value "C:\Users\ealvarezq\Documents\GitHub\Comillas\Models\JointResearch\05. Models\06.Benchmarking\K.Investments_per_hour\9n_mod1_ByStages_nc50/openStarNet_9n_mod1_ByStages_nc50.log"
Set parameter Method to value 2
Set parameter MIPFocus to value 1
Set parameter Presolve to value 2
Set parameter RINS to value 100
Set parameter MIPGap to value 0.01
Set parameter Threads to value 9
Set parameter TimeLimit to value 259200
Set parameter IterationLimit to value 760000000
Gurobi Optimizer version 10.0.0 build v10.0.0rc2 (win64)

CPU model: Intel(R) Core(TM) i7-8700 CPU @ 3.20GHz, instruction set [SSE2|AVX|AVX2]
Thread count: 6 physical cores, 12 logical processors, using up to 9 threads

Optimize a model with 13103 rows, 6952 columns and 32440 nonzeros
Model fingerprint: 0x26fc20a3
Coefficient statistics:
  Matrix range     [2e-04, 2e+03]
  Objective range  [1e+00, 1e+00]
  Bounds range     [3e-04, 2e+00]
  RHS range        [2e-04, 2e+01]
Presolve removed 11948 rows and 4604 columns
Presolve time: 0.01s
Presolved: 1155 rows, 2398 columns, 5159 nonzeros

Ordering time: 0.00s

Barrier statistics:
 AA' NZ     : 2.526e+03
 Factor NZ  : 1.147e+04 (roughly 2 MB of memory)
 Factor Ops : 1.502e+05 (less than 1 second per iteration)
 Threads    : 1

                  Objective                Residual
Iter       Primal          Dual         Primal    Dual     Compl     Time
   0   7.96982466e+05 -2.73293832e+07  9.56e+00 2.55e+02  3.58e+04     0s
   1   7.68128740e+04 -1.64523136e+07  7.66e-01 2.18e-11  4.89e+03     0s
   2   2.72333542e+04 -4.75028238e+06  1.22e-01 3.64e-11  1.03e+03     0s
   3   1.41992122e+04 -4.56444345e+05  2.10e-03 1.82e-11  8.69e+01     0s
   4   5.06884984e+03 -3.86376229e+04  2.23e-05 1.46e-11  8.02e+00     0s
   5   2.00843386e+03 -8.67057266e+03  3.78e-06 7.28e-12  1.96e+00     0s
   6   9.70619700e+02 -4.27386130e+03  6.37e-07 2.73e-12  9.62e-01     0s
   7   5.41039157e+02 -1.22733128e+03  5.78e-08 4.18e-12  3.24e-01     0s
   8   2.99175808e+02 -4.13077374e+02  1.63e-08 3.55e-12  1.31e-01     0s
   9   1.52183768e+02 -8.95217317e+01  2.38e-09 5.03e-12  4.43e-02     0s
  10   1.07200236e+02  3.67556209e+01  4.32e-10 2.59e-12  1.29e-02     0s
  11   9.49975804e+01  7.23855226e+01  1.55e-10 1.83e-12  4.15e-03     0s
  12   9.05246763e+01  8.09904385e+01  6.96e-11 8.20e-12  1.75e-03     0s
  13   8.82718921e+01  8.42892226e+01  2.92e-11 1.47e-12  7.30e-04     0s
  14   8.73186262e+01  8.58812324e+01  1.30e-11 2.24e-12  2.64e-04     0s
  15   8.66011677e+01  8.63393215e+01  1.29e-12 4.39e-12  4.80e-05     0s
  16   8.65115006e+01  8.65069187e+01  1.92e-14 7.84e-12  8.40e-07     0s
  17   8.65097268e+01  8.65097221e+01  2.66e-14 1.87e-12  8.64e-10     0s
  18   8.65097250e+01  8.65097250e+01  9.10e-15 7.39e-12  8.69e-16     0s

Barrier solved model in 18 iterations and 0.03 seconds (0.03 work units)
Optimal objective 8.65097250e+01

Crossover log...

     545 DPushes remaining with DInf 0.0000000e+00                 0s
       0 DPushes remaining with DInf 0.0000000e+00                 0s

      10 PPushes remaining with PInf 0.0000000e+00                 0s
       0 PPushes remaining with PInf 0.0000000e+00                 0s

  Push phase complete: Pinf 0.0000000e+00, Dinf 2.3055906e-13      0s

Iteration    Objective       Primal Inf.    Dual Inf.      Time
      47    8.6509725e+01   0.000000e+00   0.000000e+00      0s

Solved in 47 iterations and 0.05 seconds (0.03 work units)
Optimal objective  8.650972501e+01
